p tw 130 300
0 1
0 2
0 10
0 99
1 2
2 24
2 25
2 45
2 46
2 42
2 47
2 48
2 49
2 37
2 73
2 78
2 79
2 58
2 102
2 108
2 109
2 81
2 117
2 36
2 120
2 3
2 121
3 4
3 5
3 121
4 5
4 26
4 83
5 39
5 40
5 19
5 53
5 34
5 57
5 22
5 90
5 85
5 100
5 106
5 107
5 14
5 76
5 55
5 91
6 7
6 8
6 27
6 60
7 8
8 37
8 38
8 61
8 62
8 65
8 66
8 74
8 75
8 59
8 76
8 85
8 86
8 114
8 115
8 54
8 63
8 45
8 128
8 127
8 129
9 10
9 11
10 11
10 18
10 19
10 22
10 23
10 33
10 34
10 41
10 42
10 54
10 55
10 81
10 82
10 51
10 96
10 68
10 89
10 99
10 38
10 103
10 104
10 121
10 98
10 119
11 20
11 21
12 13
12 14
13 14
13 35
13 36
13 43
13 44
13 17
13 57
13 71
13 72
13 93
13 94
13 52
13 95
13 70
13 112
13 84
13 116
13 31
13 126
14 76
15 16
15 17
15 20
15 111
16 17
16 67
16 68
16 72
16 80
16 56
16 78
16 104
16 105
16 35
16 90
16 61
16 88
16 94
16 118
16 18
16 75
17 57
18 19
18 75
19 53
20 21
20 51
20 52
20 63
20 64
20 62
20 84
20 30
20 73
20 111
20 114
20 118
20 50
20 125
20 99
20 112
21 32
21 56
22 23
22 90
24 25
24 60
24 65
25 31
25 32
26 27
26 28
26 29
26 30
26 83
26 48
26 89
26 95
26 108
26 110
26 119
26 117
26 122
26 44
26 123
27 28
27 60
28 32
28 106
29 30
30 73
31 32
31 126
32 41
32 50
32 56
32 74
32 77
32 97
32 98
32 43
32 100
32 106
32 49
32 113
33 34
34 57
35 36
35 90
36 120
37 38
37 73
38 103
39 40
40 60
40 110
41 42
41 50
42 47
43 44
43 100
44 123
45 46
45 128
47 60
47 101
48 49
48 89
49 113
50 125
51 52
51 96
52 95
54 55
54 63
55 91
56 78
58 59
58 60
58 102
59 60
59 76
60 65
60 69
60 70
60 87
60 88
60 91
60 92
60 101
60 110
60 115
60 124
60 82
60 127
60 71
60 128
61 62
61 88
62 84
63 64
65 66
67 68
68 89
69 70
70 112
71 72
71 128
72 80
74 75
74 77
78 79
81 82
81 117
82 127
84 116
85 86
85 100
87 88
91 92
93 94
94 118
95 108
97 98
98 119
99 112
104 105
104 121
106 107
108 109
110 119
114 115
114 118
115 124
117 122
127 129
